43708
101010101001110000011001100100
19 6 2 11 2 12 2 27 11 11 4 6 13 13 0 11 13 20 24 0 27 24 23 24 13 27 27 19 4 23 19 6 4 24 27 12 20 8 24 0 11 8 12 4 8 19 13 0 19 20 27 19 0 2 8 12 11 8 27 11 4 0 12 8 8 12 8 0 19 12 27 12 6 8 23 23 20 23 8 0 13 23 8 11 4 13 19 2 0 11 0 6 12 11 23 13 11 6 8 20 6 2 12 11 4 0 4 24 27 2 27 4 24 12 12 8 12 11 19 8 20 11 27 4 19 2 2 11 19 27 11 2 0 19 13 20 13 8 11 13 12 0 11 11 11 2 24 0 27 11 0 23 23 0 8 12 2 0 8 13 13 27 23 0 23 27 23 4 13 2 13 20 19 20 19 2 0 8 4 20 13 2 2 0 19 8 11 23 0 2 2 2 6 19 11 12 11 2 8 11 